Reading model...
...model read.
creating competitive generators file...
...competitive generators recorded.
Loading data...
.. real-time data read.
Compiling instance...
...instance created.
Creating Offer Mitigation (model will solve as dispatch if TRUE)...
...storage offer mitigation file created
Converting model to MPEC...
...converted
NOTE: initial MIP solve with only storage competitive to get feasible solution
Solving...

Welcome to IBM(R) ILOG(R) CPLEX(R) Interactive Optimizer 12.9.0.0
  with Simplex, Mixed Integer & Barrier Optimizers
5725-A06 5725-A29 5724-Y48 5724-Y49 5724-Y54 5724-Y55 5655-Y21
Copyright IBM Corp. 1988, 2019.  All Rights Reserved.

Type 'help' for a list of available commands.
Type 'help' followed by a command name for more
information on commands.

CPLEX> Logfile 'cplex.log' closed.
Logfile 'C:\Users\llavin\Desktop\test826\logs\tmp5vs9fqhp.cplex.log' open.
CPLEX> New value for parallel optimization mode: -1
CPLEX> New value for mixed integer optimality gap tolerance: 0.5
CPLEX> New value for feasibility tolerance: 1e-09
CPLEX> New value for deterministic time limit in ticks: 150000
CPLEX> Problem 'C:\Users\llavin\Desktop\test826\logs\tmp5i7k2r8w.pyomo.lp' read.
Read time = 0.53 sec. (28.07 ticks)
CPLEX> Problem name         : C:\Users\llavin\Desktop\test826\logs\tmp5i7k2r8w.pyomo.lp
Objective sense      : Maximize
Variables            :  107787  [Nneg: 1,  Box: 44058,  Free: 8928,
                                 Binary: 54800]
Objective nonzeros   :   19008
Linear constraints   :  246915  [Less: 82870,  Greater: 118432,  Equal: 45613]
  Nonzeros           :  620013
  RHS nonzeros       :  136520

Variables            : Min LB: -5000.000        Max UB: 1000000.       
Objective nonzeros   : Min   : 0.1666667        Max   : 208.3333       
Linear constraints   :
  Nonzeros           : Min   : 0.1666667        Max   : 1000000.       
  RHS nonzeros       : Min   : 0.1666667        Max   : 1000000.       
CPLEX> CPXPARAM_Parallel                                -1
CPXPARAM_Simplex_Tolerances_Feasibility          1.0000000000000001e-09
CPXPARAM_DetTimeLimit                            150000
CPXPARAM_MIP_Tolerances_MIPGap                   0.5
Tried aggregator 3 times.
MIP Presolve eliminated 173643 rows and 34674 columns.
MIP Presolve added 7679 rows and 0 columns.
MIP Presolve modified 53016 coefficients.
Aggregator did 26048 substitutions.
Reduced MIP has 54903 rows, 46681 columns, and 157474 nonzeros.
Reduced MIP has 18495 binaries, 0 generals, 0 SOSs, and 0 indicators.
Presolve time = 0.59 sec. (349.91 ticks)
Probing fixed 810 vars, tightened 15592 bounds.
Probing time = 0.41 sec. (18.87 ticks)
Tried aggregator 2 times.
MIP Presolve eliminated 1828 rows and 1645 columns.
MIP Presolve modified 7067 coefficients.
Aggregator did 80 substitutions.
Reduced MIP has 52995 rows, 44956 columns, and 151853 nonzeros.
Reduced MIP has 17680 binaries, 0 generals, 0 SOSs, and 0 indicators.
Presolve time = 0.31 sec. (277.01 ticks)
Probing fixed 5 vars, tightened 476 bounds.
Probing time = 0.56 sec. (21.61 ticks)
Clique table members: 86906.
MIP emphasis: balance optimality and feasibility.
MIP search method: dynamic search.
Parallel mode: opportunistic, using up to 32 threads.
Root relaxation solution time = 1.16 sec. (1855.15 ticks)

        Nodes                                         Cuts/
   Node  Left     Objective  IInf  Best Integer    Best Bound    ItCnt     Gap

      0     0        0.0000    20                      0.0000     8063         
*     0+    0                            0.0000        0.0000             0.00%
      0     0        cutoff              0.0000        0.0000     8063    0.00%
Elapsed time = 3.83 sec. (3041.38 ticks, tree = 0.01 MB, solutions = 1)

Root node processing (before b&c):
  Real time             =    3.86 sec. (3045.38 ticks)
Parallel b&c, 32 threads:
  Real time             =    0.00 sec. (0.00 ticks)
  Sync time (average)   =    0.00 sec.
  Wait time (average)   =    0.00 sec.
                          ------------
Total (root+branch&cut) =    3.86 sec. (3045.38 ticks)

Solution pool: 1 solution saved.

MIP - Integer optimal solution:  Objective =  6.8990857471e-10
Solution time =    3.91 sec.  Iterations = 8063  Nodes = 0
Deterministic time = 3045.69 ticks  (779.75 ticks/sec)

CPLEX> Incumbent solution written to file 'C:\Users\llavin\Desktop\test826\logs\tmpnrf6n8yr.cplex.sol'.
CPLEX> NOTE: no warmstart specified for MIP iteration, default behavior is true
NOTE: resolving with all competitive generators using storage-only solution to warmstart
Solving...

Welcome to IBM(R) ILOG(R) CPLEX(R) Interactive Optimizer 12.9.0.0
  with Simplex, Mixed Integer & Barrier Optimizers
5725-A06 5725-A29 5724-Y48 5724-Y49 5724-Y54 5724-Y55 5655-Y21
Copyright IBM Corp. 1988, 2019.  All Rights Reserved.

Type 'help' for a list of available commands.
Type 'help' followed by a command name for more
information on commands.

CPLEX> Logfile 'cplex.log' closed.
Logfile 'C:\Users\llavin\Desktop\test826\logs\tmp8wl63csr.cplex.log' open.
CPLEX> New value for parallel optimization mode: -1
CPLEX> New value for mixed integer optimality gap tolerance: 0.5
CPLEX> New value for feasibility tolerance: 1e-09
CPLEX> New value for deterministic time limit in ticks: 150000
CPLEX> Problem 'C:\Users\llavin\Desktop\test826\logs\tmpe1jc2mjz.pyomo.lp' read.
Read time = 0.55 sec. (28.12 ticks)
CPLEX> MIP start file 'C:\Users\llavin\Desktop\test826\logs\tmpcbi9vxzc.cplex.mst' read.
CPLEX> Problem name         : C:\Users\llavin\Desktop\test826\logs\tmpe1jc2mjz.pyomo.lp
Objective sense      : Maximize
Variables            :  109227  [Nneg: 1,  Box: 45498,  Free: 8928,
                                 Binary: 54800]
Objective nonzeros   :   20400
Linear constraints   :  246915  [Less: 82870,  Greater: 118432,  Equal: 45613]
  Nonzeros           :  620013
  RHS nonzeros       :  136520

Variables            : Min LB: -5000.000        Max UB: 1000000.       
Objective nonzeros   : Min   : 0.1666667        Max   : 208.3333       
Linear constraints   :
  Nonzeros           : Min   : 0.1666667        Max   : 1000000.       
  RHS nonzeros       : Min   : 0.1666667        Max   : 1000000.       
CPLEX> CPXPARAM_Parallel                                -1
CPXPARAM_Simplex_Tolerances_Feasibility          1.0000000000000001e-09
CPXPARAM_DetTimeLimit                            150000
CPXPARAM_MIP_Tolerances_MIPGap                   0.5
Warning:  No solution found from 1 MIP starts.
Retaining values of one MIP start for possible repair.
Tried aggregator 3 times.
MIP Presolve eliminated 173643 rows and 36114 columns.
MIP Presolve added 7679 rows and 0 columns.
MIP Presolve modified 53016 coefficients.
Aggregator did 26048 substitutions.
Reduced MIP has 54903 rows, 46681 columns, and 157474 nonzeros.
Reduced MIP has 18495 binaries, 0 generals, 0 SOSs, and 0 indicators.
Presolve time = 0.61 sec. (350.65 ticks)
Probing fixed 810 vars, tightened 15592 bounds.
Probing time = 0.45 sec. (18.87 ticks)
Tried aggregator 2 times.
MIP Presolve eliminated 1828 rows and 1645 columns.
MIP Presolve modified 7067 coefficients.
Aggregator did 80 substitutions.
Reduced MIP has 52995 rows, 44956 columns, and 151853 nonzeros.
Reduced MIP has 17680 binaries, 0 generals, 0 SOSs, and 0 indicators.
Presolve time = 0.31 sec. (277.03 ticks)
Probing fixed 5 vars, tightened 476 bounds.
Probing time = 0.61 sec. (21.61 ticks)
Clique table members: 86906.
MIP emphasis: balance optimality and feasibility.
MIP search method: dynamic search.
Parallel mode: opportunistic, using up to 32 threads.
Root relaxation solution time = 1.39 sec. (2051.71 ticks)

        Nodes                                         Cuts/
   Node  Left     Objective  IInf  Best Integer    Best Bound    ItCnt     Gap

      0     0     1291.3203    59                   1291.3203     9732         
      0     0     1291.3203     6                    Cuts: 14     9738         
      0     0     1291.3203     7                     Cuts: 3     9743         
      0     0     1291.3203     8                   Covers: 1     9745         
Repair heuristic found nothing.
      0     2     1291.3203     8                   Covers: 1     9745         
Elapsed time = 12.11 sec. (6816.96 ticks, tree = 0.02 MB, solutions = 2)
*    16+   11                          786.4479     1291.3203            64.20%
*    21+    8                          786.4479     1291.3203            64.20%
    115   172     1256.6199     7      786.4479     1291.3203    10540   64.20%
    386   281      821.1482     3      786.4479     1291.3203    11184   64.20%
   1097   301      908.9783     2      786.4479     1291.3203    11218   64.20%
   1639   876      908.9783     2      786.4479     1291.3203    13201   64.20%
   2165  1286      821.1482     4      786.4479     1291.3203    14248   64.20%
   2702   858      908.9783     2      786.4479     1291.3203    13116   64.20%
   3023   788      941.1015     3      786.4479     1256.6199    13001   59.78%
   3280  1610        cutoff            786.4479     1256.6199    15091   59.78%
   3462  1813      908.9783     2      786.4479     1256.6199    15491   59.78%

Cover cuts applied:  3
Flow cuts applied:  10
Mixed integer rounding cuts applied:  1
Lift and project cuts applied:  1
Gomory fractional cuts applied:  5

Root node processing (before b&c):
  Real time             =    8.86 sec. (6701.45 ticks)
Parallel b&c, 32 threads:
  Real time             =   14.91 sec. (2787.81 ticks)
  Sync time (average)   =    2.81 sec.
  Wait time (average)   =    0.00 sec.
                          ------------
Total (root+branch&cut) =   23.77 sec. (9489.26 ticks)

Solution pool: 20 solutions saved.

MIP - Integer optimal, tolerance (0.5/1e-06):  Objective =  7.8644787051e+02
Current MIP best bound =  1.1687898279e+03 (gap = 382.342, 48.62%)
Solution time =   23.80 sec.  Iterations = 18923  Nodes = 3600 (3133)
Deterministic time = 9489.57 ticks  (398.79 ticks/sec)

CPLEX> Incumbent solution written to file 'C:\Users\llavin\Desktop\test826\logs\tmp2v2ddd8w.cplex.sol'.
CPLEX> Exporting results... 
